
Gurobi 9.5.0 (mac64[x86]) logging started Tue  3 Jan 16:56:40 2023

Set parameter LogFile to value "/Users/nikitabelyak/Dropbox (Aalto)/TSEP/Nordic_case_study/2022 data/optimisation_results/03_Jan_2023_16_56_40.log"
Set parameter Threads to value 6
